
List of user-set options:

                                    Name   Value                used
                           compl_inf_tol = 1                     yes
                         constr_viol_tol = 1                     yes
                            dual_inf_tol = 1000                  yes
                           linear_solver = ma97                  yes
                              ma86_small = 1e-30                  no
                                  ma86_u = 0.0001                 no
                              ma97_order = best                  yes
                              ma97_small = 1e-30                 yes
                            ma97_switch1 = at_start              yes
                            ma97_switch2 = od_hd_reuse           yes
                                  ma97_u = 1e-06                 yes
                               ma97_umax = 0.5                   yes
                                max_iter = 1000                  yes
                    max_refinement_steps = 20                    yes
                    min_refinement_steps = 5                     yes
                                 mu_init = 1e-06                 yes
           mu_superlinear_decrease_power = 1.25                  yes
                   nlp_scaling_min_value = 1e-08                 yes
                        option_file_name = Preset_Case_609_pf.opt  yes
                             output_file = ./tmp/Preset_Case_609_pf.output  yes
                      print_user_options = yes                   yes
        required_infeasibility_reduction = 1                      no
                                     tol = 1e-08                 yes
                   warm_start_bound_frac = 1e-20                 yes
                   warm_start_bound_push = 1e-20                 yes
                   warm_start_init_point = yes                   yes
              warm_start_mult_bound_push = 1e-20                 yes
                warm_start_mult_init_max = 1e+40                 yes
             warm_start_slack_bound_frac = 1e-20                 yes
             warm_start_slack_bound_push = 1e-20                 yes

******************************************************************************
This program contains Ipopt, a library for large-scale nonlinear optimization.
 Ipopt is released as open source code under the Eclipse Public License (EPL).
         For more information visit http://projects.coin-or.org/Ipopt
******************************************************************************

This is Ipopt version 3.12.10, running with linear solver ma97.

Number of nonzeros in equality constraint Jacobian...:   123443
Number of nonzeros in inequality constraint Jacobian.:      213
Number of nonzeros in Lagrangian Hessian.............:    49069

Total number of variables............................:    31591
                     variables with only lower bounds:    12912
                variables with lower and upper bounds:    15130
                     variables with only upper bounds:        0
Total number of equality constraints.................:    31483
Total number of inequality constraints...............:       25
        inequality constraints with only lower bounds:        4
   inequality constraints with lower and upper bounds:        0
        inequality constraints with only upper bounds:       21

iter    objective    inf_pr   inf_du lg(mu)  ||d||  lg(rg) alpha_du alpha_pr  ls
   0 -5.0322969e+00 4.02e-03 1.02e+00  -6.0 0.00e+00    -  0.00e+00 0.00e+00   0
   1 -5.0318032e+00 6.90e-03 1.02e+00  -6.0 5.40e+05    -  1.12e-04 2.78e-05h  6
   2 -5.0338775e+00 6.92e-03 1.63e+00  -6.0 1.11e+04    -  8.96e-03 1.90e-03h  1
   3 -5.0495220e+00 9.97e-01 5.71e+00  -6.0 1.44e+04    -  1.21e-02 1.44e-02f  1
   4 -5.0921532e+00 1.50e+01 4.74e+01  -6.0 1.94e+04    -  6.75e-03 4.03e-02f  1
   5 -5.1398210e+00 1.44e+01 1.00e+02  -6.0 1.03e+04    -  2.23e-01 4.87e-02f  1
   6 -5.2141706e+00 1.87e+01 2.30e+02  -6.0 1.05e+04    -  1.67e-01 8.35e-02h  1
   7 -5.4815199e+00 3.10e+01 1.82e+03  -6.0 8.52e+03    -  2.70e-01 3.56e-01h  1
   8 -5.4835791e+00 3.08e+01 1.80e+03  -6.0 3.93e+03    -  5.78e-02 7.68e-03h  1
   9 -5.4834017e+00 3.07e+01 1.80e+03  -6.0 5.55e+00  -4.0 5.87e-02 3.69e-03h  1
iter    objective    inf_pr   inf_du lg(mu)  ||d||  lg(rg) alpha_du alpha_pr  ls
  10 -5.5629659e+00 2.94e+01 1.70e+03  -6.0 3.88e+03    -  3.74e-01 3.02e-01f  1
  11 -5.5618197e+00 2.86e+01 1.65e+03  -6.0 6.35e+00  -4.5 1.95e-01 2.73e-02h  1
  12 -5.6001019e+00 2.57e+01 1.33e+03  -6.0 1.97e+03    -  5.43e-01 3.06e-01h  1
  13 -5.5980835e+00 2.41e+01 1.25e+03  -6.0 1.28e+01  -5.0 2.61e-01 6.42e-02h  1
  14 -5.6003551e+00 2.33e+01 1.21e+03  -6.0 2.39e+03    -  3.28e-01 3.50e-02h  1
  15 -5.6208429e+00 1.94e+01 8.95e+02  -6.0 1.55e+03    -  5.39e-02 3.35e-01h  1
  16 -5.6186385e+00 1.72e+01 7.93e+02  -6.0 2.20e+01  -5.4 1.81e-01 1.14e-01h  1
  17 -5.6116669e+00 3.67e+00 1.73e+02  -6.0 7.79e+01  -5.9 1.30e-01 7.89e-01h  1
  18 -5.6184207e+00 1.57e-01 2.74e+01  -6.0 4.78e+01  -6.4 2.93e-01 1.00e+00h  1
  19 -5.6184946e+00 1.53e-01 1.71e+01  -6.0 9.81e+01  -6.9 6.77e-01 2.29e-02h  1
iter    objective    inf_pr   inf_du lg(mu)  ||d||  lg(rg) alpha_du alpha_pr  ls
  20 -5.6263145e+00 1.31e+00 3.85e+01  -6.0 2.36e+02  -7.3 8.82e-01 8.83e-01f  1
  21 -5.6253124e+00 3.64e-01 5.79e+03  -6.0 1.84e+02  -7.8 2.55e-01 7.70e-01h  1
  22 -5.6266585e+00 8.37e-02 4.45e+00  -6.0 5.35e+01  -6.5 1.00e+00 1.00e+00h  1
  23 -5.6316776e+00 6.61e-01 4.65e+00  -6.0 1.50e+02  -7.0 1.00e+00 1.00e+00h  1
  24 -5.6374406e+00 1.18e+00 4.53e+01  -6.0 1.97e+03  -7.4 1.08e-01 7.08e-02h  1
  25 -5.6496326e+00 1.19e+00 2.46e+02  -6.0 2.04e+02  -7.0 1.00e+00 1.00e+00h  1
  26 -5.6503303e+00 1.18e+00 1.66e+01  -6.0 1.38e+03  -6.6 1.38e-02 1.19e-02h  1
  27 -5.6549299e+00 1.03e+00 2.20e+04  -6.0 2.84e+02  -7.1 3.79e-01 2.00e-01h  1
  28 -5.6571772e+00 9.56e-01 1.14e+05  -6.0 3.59e+02  -7.5 3.21e-01 8.34e-02h  1
  29 -5.6793261e+00 1.38e+00 2.19e+03  -6.0 2.22e+02  -7.1 1.00e+00 1.00e+00h  1
iter    objective    inf_pr   inf_du lg(mu)  ||d||  lg(rg) alpha_du alpha_pr  ls
  30 -5.6865832e+00 1.25e+00 1.60e+05  -6.0 4.03e+02  -7.6 2.56e-01 1.50e-01h  1
  31 -5.6868369e+00 1.24e+00 3.66e+05  -6.0 1.36e+03  -8.1 1.72e-01 3.55e-03h  1
  32 -5.6881945e+00 1.21e+00 1.30e+08  -6.0 4.34e+03  -7.6 1.77e-04 2.37e-02h  1
  33 -5.6990409e+00 9.82e-01 1.01e+08  -6.0 1.20e+03    -  1.66e-02 2.23e-01h  1
  34 -5.7001593e+00 9.43e-01 9.67e+07  -6.0 1.53e+03    -  1.12e-01 3.99e-02h  1
  35r-5.7001593e+00 9.43e-01 1.00e+03  -0.0 0.00e+00  -8.1 0.00e+00 1.12e-07R  2
  36r-5.7016656e+00 9.41e-01 1.00e+03  -0.0 8.59e+03    -  6.66e-06 1.83e-06f  1
  37 -5.7015632e+00 9.13e-01 6.61e+04  -6.0 6.50e+01    -  7.13e-02 3.03e-02h  1
  38 -5.7008261e+00 7.17e-01 7.50e+05  -6.0 7.48e+00    -  3.03e-02 2.14e-01h  1
  39 -5.6999331e+00 4.77e-01 4.98e+05  -6.0 5.93e+00    -  3.82e-01 3.35e-01h  1
iter    objective    inf_pr   inf_du lg(mu)  ||d||  lg(rg) alpha_du alpha_pr  ls
  40 -5.6991737e+00 2.46e-01 2.57e+05  -6.0 3.94e+00    -  3.76e-01 4.84e-01h  1
  41 -5.6991034e+00 2.02e-01 2.11e+05  -6.0 1.98e+00    -  8.75e-01 1.79e-01h  1
  42 -5.7012665e+00 2.71e-03 1.97e+01  -6.0 2.07e+00    -  7.42e-01 1.00e+00h  1
  43 -5.7034126e+00 3.05e-03 5.68e+00  -6.0 7.00e+00    -  7.35e-01 9.60e-01h  1
  44 -5.7044613e+00 1.88e-02 1.19e+00  -6.0 2.42e+01    -  9.43e-01 1.00e+00f  1
  45 -5.7152234e+00 7.22e-01 3.56e+00  -6.0 1.53e+02    -  8.37e-01 9.82e-01h  1
  46 -5.7137684e+00 3.68e-01 4.02e+04  -6.0 3.07e+02    -  3.87e-01 1.00e+00h  1
  47 -5.7142595e+00 1.25e-02 9.66e+02  -6.0 1.75e+01  -5.9 9.96e-01 1.00e+00h  1
  48 -5.7144251e+00 1.04e+00 8.62e+02  -6.0 5.36e+03    -  2.98e-02 3.89e-02h  1
  49 -5.7140007e+00 3.45e-03 4.91e+03  -6.0 8.81e+00  -6.4 6.99e-01 1.00e+00h  1
iter    objective    inf_pr   inf_du lg(mu)  ||d||  lg(rg) alpha_du alpha_pr  ls
  50 -5.7143238e+00 2.60e-03 3.73e+01  -6.0 2.22e+01  -6.8 1.00e+00 1.00e+00h  1
  51 -5.7145597e+00 7.22e-03 4.24e+00  -6.0 4.48e+01  -7.3 1.00e+00 9.06e-01h  1
  52 -5.7148773e+00 2.28e-02 3.19e+00  -6.0 9.80e+01  -7.8 1.00e+00 1.00e+00h  1
  53 -5.7153064e+00 4.19e-02 4.56e+00  -6.0 2.07e+02  -8.3 1.00e+00 1.00e+00h  1
  54 -5.7156356e+00 1.31e-01 5.05e+00  -6.0 2.66e+02  -8.8 1.00e+00 1.00e+00h  1
  55 -5.7155810e+00 1.13e+00 1.35e+00  -6.0 2.20e+02  -9.2 1.00e+00 1.00e+00h  1
  56 -5.7155552e+00 1.01e+01 7.04e+00  -6.0 6.60e+02  -9.7 5.06e-01 1.00e+00h  1
  57 -5.7155972e+00 1.60e+01 1.12e+01  -6.0 2.52e+03 -10.2 4.74e-01 2.44e-01h  1
  58 -5.7156566e+00 2.55e+01 1.81e+01  -6.0 8.87e+03    -  1.28e-01 8.04e-02h  1
  59 -5.7157484e+00 6.96e+01 2.99e+01  -6.0 2.61e+03    -  1.00e+00 6.64e-01h  1
iter    objective    inf_pr   inf_du lg(mu)  ||d||  lg(rg) alpha_du alpha_pr  ls
  60 -5.7155522e+00 3.18e+00 2.70e+04  -6.0 4.39e+02    -  3.05e-03 9.90e-01h  1
  61 -5.7158660e+00 5.52e+01 2.09e+04  -6.0 7.52e+03    -  2.27e-01 2.28e-01h  1
  62 -5.7157941e+00 1.95e+00 1.63e+05  -6.0 2.59e+02    -  1.13e-04 1.00e+00h  1
  63 -5.7156418e+00 9.41e-01 4.93e-01  -6.0 2.34e+02    -  1.00e+00 1.00e+00h  1
  64 -5.7156121e+00 1.85e+00 7.03e+00  -6.0 9.89e+02    -  1.00e+00 1.00e+00H  1
  65 -5.7156265e+00 4.15e-01 3.80e-01  -6.0 1.41e+02    -  9.88e-01 1.00e+00h  1
  66 -5.7156252e+00 1.09e-01 6.37e-02  -6.0 7.50e+01    -  1.00e+00 1.00e+00h  1
  67 -5.7156246e+00 5.99e-05 2.31e-05  -6.0 1.65e+00    -  1.00e+00 1.00e+00h  1
  68 -5.7156246e+00 2.14e-09 1.37e-09  -6.0 1.05e-02    -  1.00e+00 1.00e+00h  1
  69 -5.7158106e+00 5.77e+00 4.67e+01  -7.5 7.31e+02    -  6.34e-01 7.95e-01f  1
iter    objective    inf_pr   inf_du lg(mu)  ||d||  lg(rg) alpha_du alpha_pr  ls
  70 -5.7157839e+00 1.10e+00 2.54e+01  -7.5 1.61e+02    -  6.90e-01 8.75e-01h  1
  71 -5.7157740e+00 4.08e-02 2.73e-02  -7.5 3.29e+01    -  1.00e+00 1.00e+00h  1
  72 -5.7157739e+00 2.40e-03 2.85e-05  -7.5 2.91e+00    -  1.00e+00 1.00e+00h  1
  73 -5.7157739e+00 1.73e-08 4.41e-10  -7.5 9.18e-03    -  1.00e+00 1.00e+00h  1
  74 -5.7157755e+00 6.76e-03 7.87e-01  -9.0 2.34e+01    -  9.21e-01 8.35e-01h  1
  75 -5.7157757e+00 2.60e-04 9.65e-04  -9.0 3.81e+00    -  1.00e+00 1.00e+00h  1
  76 -5.7157757e+00 2.74e-09 3.80e-09  -9.0 6.16e-03    -  1.00e+00 1.00e+00h  1

Number of Iterations....: 76

                                   (scaled)                 (unscaled)
Objective...............:  -4.4654497713275072e+00   -5.7157757072992093e+00
Dual infeasibility......:   3.7990402514753794e-09    4.8627715218884855e-09
Constraint violation....:   2.7363307175676255e-09    2.7363307175676255e-09
Complementarity.........:   1.1300482610189047e-09    1.4464617741041981e-09
Overall NLP error.......:   3.7990402514753794e-09    4.8627715218884855e-09


Number of objective function evaluations             = 87
Number of objective gradient evaluations             = 77
Number of equality constraint evaluations            = 87
Number of inequality constraint evaluations          = 87
Number of equality constraint Jacobian evaluations   = 78
Number of inequality constraint Jacobian evaluations = 78
Number of Lagrangian Hessian evaluations             = 76
Total CPU secs in IPOPT (w/o function evaluations)   =    178.037
Total CPU secs in NLP function evaluations           =      2.799

EXIT: Optimal Solution Found.
